NAME          DCAP_2_4_3_500_SS29
ROWS
 N  OBJ
 L  CON1
 L  CON2
 L  CON3
 L  CON4
 L  CON5
 L  CON6
 L  CON7
 L  CON8
 L  CON9
 L  CON10
 L  CON11
 L  CON12
 E  CON13
 E  CON14
 E  CON15
 E  CON16
 E  CON17
 E  CON18
 E  CON19
 E  CON20
 E  CON21
 E  CON22
 E  CON23
 E  CON24
COLUMNS
    x[1,1]    OBJ       6.180167      CON1      1.000000    
    x[1,1]    CON7      -1.000000     CON8      -1.000000   
    x[1,1]    CON9      -1.000000   
    x[1,2]    OBJ       6.563535      CON2      1.000000    
    x[1,2]    CON8      -1.000000     CON9      -1.000000   
    x[1,3]    OBJ       7.443064      CON3      1.000000    
    x[1,3]    CON9      -1.000000   
    x[2,1]    OBJ       6.732585      CON4      1.000000    
    x[2,1]    CON10     -1.000000     CON11     -1.000000   
    x[2,1]    CON12     -1.000000   
    x[2,2]    OBJ       5.039546      CON5      1.000000    
    x[2,2]    CON11     -1.000000     CON12     -1.000000   
    x[2,3]    OBJ       6.054841      CON6      1.000000    
    x[2,3]    CON12     -1.000000   
    MARKER    'MARKER'                'INTORG'
    u[1,1]    OBJ       48.076654     CON1      -1.000000   
    u[1,2]    OBJ       20.066487     CON2      -1.000000   
    u[1,3]    OBJ       32.230043     CON3      -1.000000   
    u[2,1]    OBJ       49.996186     CON4      -1.000000   
    u[2,2]    OBJ       49.466655     CON5      -1.000000   
    u[2,3]    OBJ       27.484319     CON6      -1.000000   
    y[1,1,1]  OBJ       5.950998      CON7      0.592296    
    y[1,1,1]  CON13     1.000000    
    y[1,1,2]  OBJ       8.405422      CON8      1.475918    
    y[1,1,2]  CON14     1.000000    
    y[1,1,3]  OBJ       8.760199      CON9      0.910407    
    y[1,1,3]  CON15     1.000000    
    y[1,2,1]  OBJ       6.517353      CON7      0.982310    
    y[1,2,1]  CON16     1.000000    
    y[1,2,2]  OBJ       9.475782      CON8      0.501882    
    y[1,2,2]  CON17     1.000000    
    y[1,2,3]  OBJ       5.994727      CON9      1.462254    
    y[1,2,3]  CON18     1.000000    
    y[1,3,1]  OBJ       9.503985      CON7      0.512853    
    y[1,3,1]  CON19     1.000000    
    y[1,3,2]  OBJ       8.991204      CON8      0.892807    
    y[1,3,2]  CON20     1.000000    
    y[1,3,3]  OBJ       9.189516      CON9      1.025020    
    y[1,3,3]  CON21     1.000000    
    y[1,4,1]  OBJ       5.446787      CON7      0.823820    
    y[1,4,1]  CON22     1.000000    
    y[1,4,2]  OBJ       6.177653      CON8      1.114313    
    y[1,4,2]  CON23     1.000000    
    y[1,4,3]  OBJ       6.859927      CON9      0.554312    
    y[1,4,3]  CON24     1.000000    
    y[2,1,1]  OBJ       5.092568      CON10     0.592296    
    y[2,1,1]  CON13     1.000000    
    y[2,1,2]  OBJ       9.910205      CON11     1.475918    
    y[2,1,2]  CON14     1.000000    
    y[2,1,3]  OBJ       8.124019      CON12     0.910407    
    y[2,1,3]  CON15     1.000000    
    y[2,2,1]  OBJ       6.821772      CON10     0.982310    
    y[2,2,1]  CON16     1.000000    
    y[2,2,2]  OBJ       7.919027      CON11     0.501882    
    y[2,2,2]  CON17     1.000000    
    y[2,2,3]  OBJ       9.251406      CON12     1.462254    
    y[2,2,3]  CON18     1.000000    
    y[2,3,1]  OBJ       7.137063      CON10     0.512853    
    y[2,3,1]  CON19     1.000000    
    y[2,3,2]  OBJ       7.303645      CON11     0.892807    
    y[2,3,2]  CON20     1.000000    
    y[2,3,3]  OBJ       5.133990      CON12     1.025020    
    y[2,3,3]  CON21     1.000000    
    y[2,4,1]  OBJ       8.433129      CON10     0.823820    
    y[2,4,1]  CON22     1.000000    
    y[2,4,2]  OBJ       6.276101      CON11     1.114313    
    y[2,4,2]  CON23     1.000000    
    y[2,4,3]  OBJ       8.347940      CON12     0.554312    
    y[2,4,3]  CON24     1.000000    
    z[1,1]    OBJ       660.825109    CON13     1.000000    
    z[1,2]    OBJ       673.274754    CON14     1.000000    
    z[1,3]    OBJ       544.209592    CON15     1.000000    
    z[2,1]    OBJ       850.064582    CON16     1.000000    
    z[2,2]    OBJ       643.865205    CON17     1.000000    
    z[2,3]    OBJ       520.440196    CON18     1.000000    
    z[3,1]    OBJ       589.403512    CON19     1.000000    
    z[3,2]    OBJ       960.256864    CON20     1.000000    
    z[3,3]    OBJ       656.617492    CON21     1.000000    
    z[4,1]    OBJ       615.098326    CON22     1.000000    
    z[4,2]    OBJ       978.947211    CON23     1.000000    
    z[4,3]    OBJ       864.803133    CON24     1.000000    
    MARKER    'MARKER'                 'INTEND'
RHS
    RHS       CON1      -0.000000     CON2      -0.000000   
    RHS       CON3      -0.000000     CON4      -0.000000   
    RHS       CON5      -0.000000     CON6      -0.000000   
    RHS       CON7      -0.000000     CON8      -0.000000   
    RHS       CON9      -0.000000     CON10     -0.000000   
    RHS       CON11     -0.000000     CON12     -0.000000   
    RHS       CON13     1.000000      CON14     1.000000    
    RHS       CON15     1.000000      CON16     1.000000    
    RHS       CON17     1.000000      CON18     1.000000    
    RHS       CON19     1.000000      CON20     1.000000    
    RHS       CON21     1.000000      CON22     1.000000    
    RHS       CON23     1.000000      CON24     1.000000    
BOUNDS
 BV BOUND     u[1,1]  
 BV BOUND     u[1,2]  
 BV BOUND     u[1,3]  
 BV BOUND     u[2,1]  
 BV BOUND     u[2,2]  
 BV BOUND     u[2,3]  
 BV BOUND     y[1,1,1]
 BV BOUND     y[1,1,2]
 BV BOUND     y[1,1,3]
 BV BOUND     y[1,2,1]
 BV BOUND     y[1,2,2]
 BV BOUND     y[1,2,3]
 BV BOUND     y[1,3,1]
 BV BOUND     y[1,3,2]
 BV BOUND     y[1,3,3]
 BV BOUND     y[1,4,1]
 BV BOUND     y[1,4,2]
 BV BOUND     y[1,4,3]
 BV BOUND     y[2,1,1]
 BV BOUND     y[2,1,2]
 BV BOUND     y[2,1,3]
 BV BOUND     y[2,2,1]
 BV BOUND     y[2,2,2]
 BV BOUND     y[2,2,3]
 BV BOUND     y[2,3,1]
 BV BOUND     y[2,3,2]
 BV BOUND     y[2,3,3]
 BV BOUND     y[2,4,1]
 BV BOUND     y[2,4,2]
 BV BOUND     y[2,4,3]
 BV BOUND     z[1,1]  
 BV BOUND     z[1,2]  
 BV BOUND     z[1,3]  
 BV BOUND     z[2,1]  
 BV BOUND     z[2,2]  
 BV BOUND     z[2,3]  
 BV BOUND     z[3,1]  
 BV BOUND     z[3,2]  
 BV BOUND     z[3,3]  
 BV BOUND     z[4,1]  
 BV BOUND     z[4,2]  
 BV BOUND     z[4,3]  
ENDATA
